0 8322 
1 8302 
2 8284 
3 8276 
4 8266 
5 8262 
6 8258 
7 8256 
8 8256 
9 8252 
10 8232 
11 8204 
12 8194 
13 8190 
14 8178 
15 8170 
16 8160 
17 8152 
18 8148 
19 8124 
20 8118 
21 8114 
22 8106 
23 8082 
24 8074 
25 8066 
26 8062 
27 8044 
28 8032 
29 8024 
30 8022 
31 8012 
32 8004 
33 7976 
34 7968 
35 7956 
36 7944 
37 7940 
38 7930 
39 7922 
40 7918 
41 7912 
42 7904 
43 7902 
44 7898 
45 7890 
46 7878 
47 7866 
48 7862 
49 7850 
50 7846 
51 7842 
52 7840 
53 7836 
54 7828 
55 7818 
56 7810 
57 7806 
58 7774 
59 7762 
60 7756 
61 7748 
62 7746 
63 7728 
64 7724 
65 7712 
66 7696 
67 7688 
68 7678 
69 7652 
70 7650 
71 7612 
72 7580 
73 7578 
74 7574 
75 7570 
76 7542 
77 7538 
78 7526 
79 7518 
80 7516 
81 7498 
82 7494 
83 7492 
84 7488 
85 7474 
86 7458 
87 7450 
88 7446 
89 7434 
90 7428 
91 7424 
92 7416 
93 7414 
94 7400 
95 7396 
96 7390 
97 7384 
98 7372 
99 7368 
100 7358 
101 7346 
102 7344 
103 7322 
104 7302 
105 7294 
106 7286 
107 7284 
108 7276 
109 7264 
110 7256 
111 7252 
112 7244 
113 7238 
114 7236 
115 7236 
116 7230 
117 7226 
118 7218 
119 7214 
120 7198 
121 7196 
122 7192 
123 7184 
124 7180 
125 7180 
126 7176 
127 7172 
128 7166 
129 7164 
130 7156 
131 7150 
132 7130 
133 7114 
134 7114 
135 7092 
136 7088 
137 7082 
138 7082 
139 7076 
140 7062 
141 7050 
142 7042 
143 7038 
144 7030 
145 7024 
146 7018 
147 7012 
148 6998 
149 6988 
150 6956 
151 6954 
152 6950 
153 6942 
154 6932 
155 6920 
156 6908 
157 6888 
158 6874 
159 6866 
160 6860 
161 6858 
162 6842 
163 6826 
164 6822 
165 6818 
166 6782 
167 6732 
168 6720 
169 6716 
170 6708 
171 6704 
172 6684 
173 6680 
174 6676 
175 6672 
176 6664 
177 6664 
178 6660 
179 6638 
180 6636 
181 6620 
182 6598 
183 6586 
184 6574 
185 6566 
186 6564 
187 6556 
188 6552 
189 6540 
190 6540 
191 6518 
192 6518 
193 6510 
194 6506 
195 6502 
196 6490 
197 6486 
198 6486 
199 6482 
200 6478 
201 6474 
202 6428 
203 6420 
204 6410 
205 6408 
206 6396 
207 6388 
208 6372 
209 6368 
210 6352 
211 6344 
212 6342 
213 6338 
214 6326 
215 6324 
216 6320 
217 6312 
218 6304 
219 6288 
220 6288 
221 6288 
222 6288 
223 6288 
224 6288 
225 6288 
226 6288 
227 6288 
228 6288 
229 6288 
230 6288 
231 6288 
232 6288 
233 6288 
234 6288 
235 6288 
236 6288 
237 6288 
238 6288 
239 6288 
240 6288 
241 6288 
242 6288 
243 6288 
244 6288 
245 6288 
246 6288 
247 6288 
248 6288 
249 6288 
250 6288 
251 6288 
252 6288 
253 6288 
254 6288 
255 6288 
256 6288 
257 6288 
258 6288 
259 6288 
260 6288 
261 6288 
262 6288 
263 6288 
264 6288 
265 6288 
266 6288 
267 6288 
268 6288 
269 6288 
270 6288 
271 6288 
272 6288 
273 6288 
274 6288 
275 6288 
276 6288 
277 6288 
278 6288 
279 6288 
280 6288 
281 6288 
282 6288 
283 6288 
284 6288 
285 6288 
286 6288 
287 6288 
288 6288 
289 6288 
290 6288 
291 6288 
292 6288 
293 6288 
294 6288 
295 6288 
296 6288 
297 6288 
298 6288 
299 6288 
300 6288 
301 6288 
302 6288 
303 6288 
304 6288 
305 6288 
306 6288 
307 6288 
308 6288 
309 6288 
310 6288 
311 6288 
312 6288 
313 6288 
314 6288 
315 6288 
316 6288 
317 6288 
318 6288 
319 6288 
320 6288 
321 6288 
322 6288 
323 6288 
324 6288 
325 6288 
326 6288 
327 6288 
328 6288 
329 6288 
330 6288 
331 6288 
332 6288 
333 6288 
334 6288 
335 6288 
336 6288 
337 6288 
338 6288 
339 6288 
340 6288 
341 6288 
342 6288 
343 6288 
344 6288 
345 6288 
346 6288 
347 6288 
348 6288 
349 6288 
350 6288 
351 6288 
352 6288 
353 6288 
354 6288 
355 6288 
356 6288 
357 6288 
358 6288 
359 6288 
360 6288 
361 6288 
362 6288 
363 6288 
364 6288 
365 6288 
366 6288 
367 6288 
368 6288 
369 6288 
370 6288 
371 6288 
372 6288 
373 6288 
374 6288 
375 6288 
376 6288 
377 6288 
378 6288 
379 6288 
380 6288 
381 6288 
382 6288 
383 6288 
384 6288 
385 6288 
386 6288 
387 6288 
388 6288 
389 6288 
390 6288 
391 6288 
392 6288 
393 6288 
394 6288 
395 6288 
396 6288 
397 6288 
398 6288 
399 6288 
400 6288 
401 6288 
402 6288 
403 6288 
404 6288 
405 6288 
406 6288 
407 6288 
408 6288 
409 6288 
410 6288 
411 6288 
412 6288 
413 6288 
414 6288 
415 6288 
416 6288 
417 6288 
418 6288 
419 6288 
420 6288 
421 6288 
422 6288 
423 6288 
424 6288 
425 6288 
426 6288 
427 6288 
428 6288 
429 6288 
430 6288 
431 6288 
432 6288 
433 6288 
434 6288 
435 6288 
436 6288 
437 6288 
438 6288 
439 6288 
440 6288 
441 6288 
442 6288 
443 6288 
444 6288 
445 6288 
446 6288 
447 6288 
448 6288 
449 6288 
450 6288 
451 6288 
452 6288 
453 6288 
454 6288 
455 6288 
456 6288 
457 6288 
458 6288 
459 6288 
460 6288 
461 6288 
462 6288 
463 6288 
464 6288 
465 6288 
466 6288 
467 6288 
468 6288 
469 6288 
470 6288 
471 6288 
472 6288 
473 6288 
474 6288 
475 6288 
476 6288 
477 6288 
478 6288 
479 6288 
480 6288 
481 6288 
482 6288 
483 6288 
484 6288 
485 6288 
486 6288 
487 6288 
488 6288 
489 6288 
490 6288 
491 6288 
492 6288 
493 6288 
494 6288 
495 6288 
496 6288 
497 6288 
498 6288 
499 6288 
500 6288 
501 6288 
502 6288 
503 6288 
504 6288 
505 6288 
506 6288 
507 6288 
508 6288 
509 6288 
510 6288 
511 6288 
512 6288 
513 6288 
514 6288 
515 6288 
516 6288 
517 6288 
518 6288 
519 6288 
520 6288 
521 6288 
522 6288 
523 6288 
524 6288 
525 6288 
526 6288 
527 6288 
528 6288 
529 6288 
530 6288 
531 6288 
532 6288 
533 6288 
534 6288 
535 6288 
536 6288 
537 6288 
538 6288 
539 6288 
540 6288 
541 6288 
542 6288 
543 6288 
544 6288 
545 6288 
546 6288 
547 6288 
548 6288 
549 6288 
550 6288 
551 6288 
552 6288 
553 6288 
554 6288 
555 6288 
556 6288 
557 6288 
558 6288 
559 6288 
560 6288 
561 6288 
562 6288 
563 6288 
564 6288 
565 6288 
566 6288 
567 6288 
568 6288 
569 6288 
570 6288 
571 6288 
572 6288 
573 6288 
574 6288 
575 6288 
576 6288 
577 6288 
578 6288 
579 6288 
580 6288 
581 6288 
582 6288 
583 6288 
584 6288 
585 6288 
586 6288 
587 6288 
588 6288 
589 6288 
590 6288 
591 6288 
592 6288 
593 6288 
594 6288 
595 6288 
596 6288 
597 6288 
598 6288 
599 6288 
600 6288 
601 6288 
602 6288 
603 6288 
604 6288 
605 6288 
606 6288 
607 6288 
608 6288 
609 6288 
610 6288 
611 6288 
612 6288 
613 6288 
614 6288 
615 6288 
616 6288 
617 6288 
618 6288 
619 6288 
620 6288 
621 6288 
622 6288 
623 6288 
624 6288 
625 6288 
626 6288 
627 6288 
628 6288 
629 6288 
630 6288 
631 6288 
632 6288 
633 6288 
634 6288 
635 6288 
636 6288 
637 6288 
638 6288 
639 6288 
640 6288 
641 6288 
642 6288 
643 6288 
644 6288 
645 6288 
646 6288 
647 6288 
648 6288 
649 6288 
650 6288 
651 6288 
652 6288 
653 6288 
654 6288 
655 6288 
656 6288 
657 6288 
658 6288 
659 6288 
660 6288 
661 6288 
662 6288 
663 6288 
664 6288 
665 6288 
666 6288 
667 6288 
668 6288 
669 6288 
670 6288 
671 6288 
672 6288 
673 6288 
674 6288 
675 6288 
676 6288 
677 6288 
678 6288 
679 6288 
680 6288 
681 6288 
682 6288 
683 6288 
684 6288 
685 6288 
686 6288 
687 6288 
688 6288 
689 6288 
690 6288 
691 6288 
692 6288 
693 6288 
694 6288 
695 6288 
696 6288 
697 6288 
698 6288 
699 6288 
700 6288 
701 6288 
702 6288 
703 6288 
704 6288 
705 6288 
706 6288 
707 6288 
708 6288 
709 6288 
710 6288 
711 6288 
712 6288 
713 6288 
714 6288 
715 6288 
716 6288 
717 6288 
718 6288 
719 6288 
720 6288 
721 6288 
722 6288 
723 6288 
724 6288 
725 6288 
726 6288 
727 6288 
728 6288 
729 6288 
730 6288 
731 6288 
732 6288 
733 6288 
734 6288 
735 6288 
736 6288 
737 6288 
738 6288 
739 6288 
740 6288 
741 6288 
742 6288 
743 6288 
744 6288 
745 6288 
746 6288 
747 6288 
748 6288 
749 6288 
750 6288 
751 6288 
752 6288 
753 6288 
754 6288 
755 6288 
756 6288 
757 6288 
758 6288 
759 6288 
760 6288 
761 6288 
762 6288 
763 6288 
764 6288 
765 6288 
766 6288 
767 6288 
768 6288 
769 6288 
770 6288 
771 6288 
772 6288 
773 6288 
774 6288 
775 6288 
776 6288 
777 6288 
778 6288 
779 6288 
780 6288 
781 6288 
782 6288 
783 6288 
784 6288 
785 6288 
786 6288 
787 6288 
788 6288 
789 6288 
790 6288 
791 6288 
792 6288 
793 6288 
794 6288 
795 6288 
796 6288 
797 6288 
798 6288 
799 6288 
800 6288 
801 6288 
802 6288 
803 6288 
804 6288 
805 6288 
806 6288 
807 6288 
808 6288 
809 6288 
810 6288 
811 6288 
812 6288 
813 6288 
814 6288 
815 6288 
816 6288 
817 6288 
818 6288 
819 6288 
820 6288 
821 6288 
822 6288 
823 6288 
824 6288 
825 6288 
826 6288 
827 6288 
828 6288 
829 6288 
830 6288 
831 6288 
832 6288 
833 6288 
834 6288 
835 6288 
836 6288 
837 6288 
838 6288 
839 6288 
840 6288 
841 6288 
842 6288 
843 6288 
844 6288 
845 6288 
846 6288 
847 6288 
848 6288 
849 6288 
850 6288 
851 6288 
852 6288 
853 6288 
854 6288 
855 6288 
856 6288 
857 6288 
858 6288 
859 6288 
860 6288 
861 6288 
862 6288 
863 6288 
864 6288 
865 6288 
866 6288 
867 6288 
868 6288 
869 6288 
870 6288 
871 6288 
872 6288 
873 6288 
874 6288 
875 6288 
876 6288 
877 6288 
878 6288 
879 6288 
880 6288 
881 6288 
882 6288 
883 6288 
884 6288 
885 6288 
886 6288 
887 6288 
888 6288 
889 6288 
890 6288 
891 6288 
892 6288 
893 6288 
894 6288 
895 6288 
896 6288 
897 6288 
898 6288 
899 6288 
900 6288 
901 6288 
902 6288 
903 6288 
904 6288 
905 6288 
906 6288 
907 6288 
908 6288 
909 6288 
910 6288 
911 6288 
912 6288 
913 6288 
914 6288 
915 6288 
916 6288 
917 6288 
918 6288 
919 6288 
920 6288 
921 6288 
922 6288 
923 6288 
924 6288 
925 6288 
926 6288 
927 6288 
928 6288 
929 6288 
930 6288 
931 6288 
932 6288 
933 6288 
934 6288 
935 6288 
936 6288 
937 6288 
938 6288 
939 6288 
940 6288 
941 6288 
942 6288 
943 6288 
944 6288 
945 6288 
946 6288 
947 6288 
948 6288 
949 6288 
950 6288 
951 6288 
952 6288 
953 6288 
954 6288 
955 6288 
956 6288 
957 6288 
958 6288 
959 6288 
960 6288 
961 6288 
962 6288 
963 6288 
964 6288 
965 6288 
966 6288 
967 6288 
968 6288 
969 6288 
970 6288 
971 6288 
972 6288 
973 6288 
974 6288 
975 6288 
976 6288 
977 6288 
978 6288 
979 6288 
980 6288 
981 6288 
982 6288 
983 6288 
984 6288 
985 6288 
986 6288 
987 6288 
988 6288 
989 6288 
990 6288 
991 6288 
992 6288 
993 6288 
994 6288 
995 6288 
996 6288 
997 6288 
998 6288 
999 6288 
1000 6288 
1001 6288 
1002 6288 
1003 6288 
1004 6288 
1005 6288 
1006 6288 
1007 6288 
1008 6288 
1009 6288 
1010 6288 
1011 6288 
1012 6288 
1013 6288 
1014 6288 
1015 6288 
1016 6288 
1017 6288 
1018 6288 
1019 6288 
1020 6288 
1021 6288 
1022 6288 
1023 6288 
1024 6288 
1025 6288 
1026 6288 
1027 6288 
1028 6288 
1029 6288 
1030 6288 
1031 6288 
1032 6288 
1033 6288 
1034 6288 
1035 6288 
1036 6288 
1037 6288 
1038 6288 
1039 6288 
1040 6288 
1041 6288 
1042 6288 
1043 6288 
1044 6288 
1045 6288 
1046 6288 
1047 6288 
1048 6288 
1049 6288 
1050 6288 
1051 6288 
1052 6288 
1053 6288 
1054 6288 
1055 6288 
1056 6288 
1057 6288 
1058 6288 
1059 6288 
1060 6288 
1061 6288 
1062 6288 
1063 6288 
1064 6288 
1065 6288 
1066 6288 
1067 6288 
1068 6288 
1069 6288 
1070 6288 
1071 6288 
1072 6288 
1073 6288 
1074 6288 
1075 6288 
1076 6288 
1077 6288 
1078 6288 
1079 6288 
1080 6288 
1081 6288 
1082 6288 
1083 6288 
1084 6288 
1085 6288 
1086 6288 
1087 6288 
1088 6288 
1089 6288 
1090 6288 
1091 6288 
1092 6288 
1093 6288 
1094 6288 
1095 6288 
1096 6288 
1097 6288 
1098 6288 
1099 6288 
1100 6288 
1101 6288 
1102 6288 
1103 6288 
1104 6288 
1105 6288 
1106 6288 
1107 6288 
1108 6288 
1109 6288 
1110 6288 
1111 6288 
1112 6288 
1113 6288 
1114 6288 
1115 6288 
1116 6288 
1117 6288 
1118 6288 
1119 6288 
1120 6288 
1121 6288 
1122 6288 
1123 6288 
1124 6288 
1125 6288 
1126 6288 
1127 6288 
1128 6288 
1129 6288 
1130 6288 
1131 6288 
1132 6288 
1133 6288 
1134 6288 
1135 6288 
1136 6288 
1137 6288 
1138 6288 
1139 6288 
1140 6288 
1141 6288 
1142 6288 
1143 6288 
1144 6288 
1145 6288 
1146 6288 
1147 6288 
1148 6288 
1149 6288 
1150 6288 
1151 6288 
1152 6288 
1153 6288 
1154 6288 
1155 6288 
1156 6288 
1157 6288 
1158 6288 
1159 6288 
1160 6288 
1161 6288 
1162 6288 
1163 6288 
1164 6288 
1165 6288 
1166 6288 
1167 6288 
1168 6288 
1169 6288 
1170 6288 
1171 6288 
1172 6288 
1173 6288 
1174 6288 
1175 6288 
1176 6288 
1177 6288 
1178 6288 
1179 6288 
1180 6288 
1181 6288 
1182 6288 
1183 6288 
1184 6288 
1185 6288 
1186 6288 
1187 6288 
1188 6288 
1189 6288 
1190 6288 
1191 6288 
1192 6288 
1193 6288 
1194 6288 
1195 6288 
1196 6288 
1197 6288 
1198 6288 
1199 6288 
1200 6288 
1201 6288 
1202 6288 
1203 6288 
1204 6288 
1205 6288 
1206 6288 
1207 6288 
1208 6288 
1209 6288 
1210 6288 
1211 6288 
1212 6288 
1213 6288 
1214 6288 
1215 6288 
1216 6288 
1217 6288 
1218 6288 
1219 6288 
1220 6288 
1221 6288 
1222 6288 
1223 6288 
1224 6288 
1225 6288 
1226 6288 
1227 6288 
1228 6288 
1229 6288 
1230 6288 
1231 6288 
1232 6288 
1233 6288 
1234 6288 
1235 6288 
1236 6288 
1237 6288 
1238 6288 
1239 6288 
1240 6288 
1241 6288 
1242 6288 
1243 6288 
1244 6288 
1245 6288 
1246 6288 
1247 6288 
1248 6288 
1249 6288 
1250 6288 
1251 6288 
1252 6288 
1253 6288 
1254 6288 
1255 6288 
1256 6288 
1257 6288 
1258 6288 
1259 6288 
1260 6288 
1261 6288 
1262 6288 
1263 6288 
1264 6288 
1265 6288 
1266 6288 
1267 6288 
1268 6288 
1269 6288 
1270 6288 
1271 6288 
1272 6288 
1273 6288 
1274 6288 
1275 6288 
1276 6288 
1277 6288 
1278 6288 
1279 6288 
1280 6288 
1281 6288 
1282 6288 
1283 6288 
1284 6288 
1285 6288 
1286 6288 
1287 6288 
1288 6288 
1289 6288 
1290 6288 
1291 6288 
1292 6288 
1293 6288 
1294 6288 
1295 6288 
1296 6288 
1297 6288 
1298 6288 
1299 6288 
1300 6288 
1301 6288 
1302 6288 
1303 6288 
1304 6288 
1305 6288 
1306 6288 
1307 6288 
1308 6288 
1309 6288 
1310 6288 
1311 6288 
1312 6288 
1313 6288 
1314 6288 
1315 6288 
1316 6288 
1317 6288 
1318 6288 
1319 6288 
1320 6288 
1321 6288 
1322 6288 
1323 6288 
1324 6288 
1325 6288 
1326 6288 
1327 6288 
1328 6288 
1329 6288 
1330 6288 
1331 6288 
1332 6288 
1333 6288 
1334 6288 
1335 6288 
1336 6288 
1337 6288 
1338 6288 
1339 6288 
1340 6288 
1341 6288 
1342 6288 
1343 6288 
1344 6288 
1345 6288 
1346 6288 
1347 6288 
1348 6288 
1349 6288 
1350 6288 
1351 6288 
1352 6288 
1353 6288 
1354 6288 
1355 6288 
1356 6288 
1357 6288 
1358 6288 
1359 6288 
1360 6288 
1361 6288 
1362 6288 
1363 6288 
1364 6288 
1365 6288 
1366 6288 
1367 6288 
1368 6288 
1369 6288 
1370 6288 
1371 6288 
1372 6288 
1373 6288 
1374 6288 
1375 6288 
1376 6288 
1377 6288 
1378 6288 
1379 6288 
1380 6288 
1381 6288 
1382 6288 
1383 6288 
1384 6288 
1385 6288 
1386 6288 
1387 6288 
1388 6288 
1389 6288 
1390 6288 
1391 6288 
1392 6288 
1393 6288 
1394 6288 
1395 6288 
1396 6288 
1397 6288 
1398 6288 
1399 6288 
1400 6288 
1401 6288 
1402 6288 
1403 6288 
1404 6288 
1405 6288 
1406 6288 
1407 6288 
1408 6288 
1409 6288 
1410 6288 
1411 6288 
1412 6288 
1413 6288 
1414 6288 
1415 6288 
1416 6288 
1417 6288 
1418 6288 
1419 6288 
1420 6288 
1421 6288 
1422 6288 
1423 6288 
1424 6288 
1425 6288 
1426 6288 
1427 6288 
1428 6288 
1429 6288 
1430 6288 
1431 6288 
1432 6288 
1433 6288 
1434 6288 
1435 6288 
1436 6288 
1437 6288 
1438 6288 
1439 6288 
1440 6288 
1441 6288 
1442 6288 
1443 6288 
1444 6288 
1445 6288 
1446 6288 
1447 6288 
1448 6288 
1449 6288 
1450 6288 
1451 6288 
1452 6288 
1453 6288 
1454 6288 
1455 6288 
1456 6288 
1457 6288 
1458 6288 
1459 6288 
1460 6288 
1461 6288 
1462 6288 
1463 6288 
1464 6288 
1465 6288 
1466 6288 
1467 6288 
1468 6288 
1469 6288 
1470 6288 
1471 6288 
1472 6288 
1473 6288 
1474 6288 
1475 6288 
1476 6288 
1477 6288 
1478 6288 
1479 6288 
1480 6288 
1481 6288 
1482 6288 
1483 6288 
1484 6288 
1485 6288 
1486 6288 
1487 6288 
1488 6288 
1489 6288 
1490 6288 
1491 6288 
1492 6288 
1493 6288 
1494 6288 
1495 6288 
1496 6288 
1497 6288 
1498 6288 
1499 6288 
1500 6288 
1501 6288 
1502 6288 
1503 6288 
1504 6288 
1505 6288 
1506 6288 
1507 6288 
1508 6288 
1509 6288 
1510 6288 
1511 6288 
1512 6288 
1513 6288 
1514 6288 
1515 6288 
1516 6288 
1517 6288 
1518 6288 
1519 6288 
1520 6288 
1521 6288 
1522 6288 
1523 6288 
1524 6288 
1525 6288 
1526 6288 
1527 6288 
1528 6288 
1529 6288 
1530 6288 
1531 6288 
1532 6288 
1533 6288 
1534 6288 
1535 6288 
1536 6288 
1537 6288 
1538 6288 
1539 6288 
1540 6288 
1541 6288 
1542 6288 
1543 6288 
1544 6288 
1545 6288 
1546 6288 
1547 6288 
1548 6288 
1549 6288 
1550 6288 
1551 6288 
1552 6288 
1553 6288 
1554 6288 
1555 6288 
1556 6288 
1557 6288 
1558 6288 
1559 6288 
1560 6288 
1561 6288 
1562 6288 
1563 6288 
1564 6288 
1565 6288 
1566 6288 
1567 6288 
1568 6288 
1569 6288 
1570 6288 
1571 6288 
1572 6288 
1573 6288 
1574 6288 
1575 6288 
1576 6288 
1577 6288 
1578 6288 
1579 6288 
1580 6288 
1581 6288 
1582 6288 
1583 6288 
1584 6288 
1585 6288 
1586 6288 
1587 6288 
1588 6288 
1589 6288 
1590 6288 
1591 6288 
1592 6288 
1593 6288 
1594 6288 
1595 6288 
1596 6288 
1597 6288 
1598 6288 
1599 6288 
1600 6288 
1601 6288 
1602 6288 
1603 6288 
1604 6288 
1605 6288 
1606 6288 
1607 6288 
1608 6288 
1609 6288 
1610 6288 
1611 6288 
1612 6288 
1613 6288 
1614 6288 
1615 6288 
1616 6288 
1617 6288 
1618 6288 
1619 6288 
1620 6288 
1621 6288 
1622 6288 
1623 6288 
1624 6288 
1625 6288 
1626 6288 
1627 6288 
1628 6288 
1629 6288 
1630 6288 
1631 6288 
1632 6288 
1633 6288 
1634 6288 
1635 6288 
1636 6288 
1637 6288 
1638 6288 
1639 6288 
1640 6288 
1641 6288 
1642 6288 
1643 6288 
1644 6288 
1645 6288 
1646 6288 
1647 6288 
1648 6288 
1649 6288 
1650 6288 
1651 6288 
1652 6288 
1653 6288 
1654 6288 
1655 6288 
1656 6288 
1657 6288 
1658 6288 
1659 6288 
1660 6288 
1661 6288 
1662 6288 
1663 6288 
1664 6288 
1665 6288 
1666 6288 
1667 6288 
1668 6288 
1669 6288 
1670 6288 
1671 6288 
1672 6288 
1673 6288 
1674 6288 
1675 6288 
1676 6288 
1677 6288 
1678 6288 
1679 6288 
1680 6288 
1681 6288 
1682 6288 
1683 6288 
1684 6288 
1685 6288 
1686 6288 
1687 6288 
1688 6288 
1689 6288 
1690 6288 
1691 6288 
1692 6288 
1693 6288 
1694 6288 
1695 6288 
1696 6288 
1697 6288 
1698 6288 
1699 6288 
1700 6288 
1701 6288 
1702 6288 
1703 6288 
1704 6288 
1705 6288 
1706 6288 
1707 6288 
1708 6288 
1709 6288 
1710 6288 
1711 6288 
1712 6288 
1713 6288 
1714 6288 
1715 6288 
1716 6288 
1717 6288 
1718 6288 
1719 6288 
1720 6288 
1721 6288 
1722 6288 
1723 6288 
1724 6288 
1725 6288 
1726 6288 
1727 6288 
1728 6288 
1729 6288 
1730 6288 
1731 6288 
1732 6288 
1733 6288 
1734 6288 
1735 6288 
1736 6288 
1737 6288 
1738 6288 
1739 6288 
1740 6288 
1741 6288 
1742 6288 
1743 6288 
1744 6288 
1745 6288 
1746 6288 
1747 6288 
1748 6288 
1749 6288 
1750 6288 
1751 6288 
1752 6288 
1753 6288 
1754 6288 
1755 6288 
1756 6288 
1757 6288 
1758 6288 
1759 6288 
1760 6288 
1761 6288 
1762 6288 
1763 6288 
1764 6288 
1765 6288 
1766 6288 
1767 6288 
1768 6288 
1769 6288 
1770 6288 
1771 6288 
1772 6288 
1773 6288 
1774 6288 
1775 6288 
1776 6288 
1777 6288 
1778 6288 
1779 6288 
1780 6288 
1781 6288 
1782 6288 
1783 6288 
1784 6288 
1785 6288 
1786 6288 
1787 6288 
1788 6288 
1789 6288 
1790 6288 
1791 6288 
1792 6288 
1793 6288 
1794 6288 
1795 6288 
1796 6288 
1797 6288 
1798 6288 
1799 6288 
1800 6288 
1801 6288 
1802 6288 
1803 6288 
1804 6288 
1805 6288 
1806 6288 
1807 6288 
1808 6288 
1809 6288 
1810 6288 
1811 6288 
1812 6288 
1813 6288 
1814 6288 
1815 6288 
1816 6288 
1817 6288 
1818 6288 
1819 6288 
1820 6288 
1821 6288 
1822 6288 
1823 6288 
1824 6288 
1825 6288 
1826 6288 
1827 6288 
1828 6288 
1829 6288 
1830 6288 
1831 6288 
1832 6288 
1833 6288 
1834 6288 
1835 6288 
1836 6288 
1837 6288 
1838 6288 
1839 6288 
1840 6288 
1841 6288 
1842 6288 
1843 6288 
1844 6288 
1845 6288 
1846 6288 
1847 6288 
1848 6288 
1849 6288 
1850 6288 
1851 6288 
1852 6288 
1853 6288 
1854 6288 
1855 6288 
1856 6288 
1857 6288 
1858 6288 
1859 6288 
1860 6288 
1861 6288 
1862 6288 
1863 6288 
1864 6288 
1865 6288 
1866 6288 
1867 6288 
1868 6288 
1869 6288 
1870 6288 
1871 6288 
1872 6288 
1873 6288 
1874 6288 
1875 6288 
1876 6288 
1877 6288 
1878 6288 
1879 6288 
1880 6288 
1881 6288 
1882 6288 
1883 6288 
1884 6288 
1885 6288 
1886 6288 
1887 6288 
1888 6288 
1889 6288 
1890 6288 
1891 6288 
1892 6288 
1893 6288 
1894 6288 
1895 6288 
1896 6288 
1897 6288 
1898 6288 
1899 6288 
1900 6288 
1901 6288 
1902 6288 
1903 6288 
1904 6288 
1905 6288 
1906 6288 
1907 6288 
1908 6288 
1909 6288 
1910 6288 
1911 6288 
1912 6288 
1913 6288 
1914 6288 
1915 6288 
1916 6288 
1917 6288 
1918 6288 
1919 6288 
1920 6288 
1921 6288 
1922 6288 
1923 6288 
1924 6288 
1925 6288 
1926 6288 
1927 6288 
1928 6288 
1929 6288 
1930 6288 
1931 6288 
1932 6288 
1933 6288 
1934 6288 
1935 6288 
1936 6288 
1937 6288 
1938 6288 
1939 6288 
1940 6288 
1941 6288 
1942 6288 
1943 6288 
1944 6288 
1945 6288 
1946 6288 
1947 6288 
1948 6288 
1949 6288 
1950 6288 
1951 6288 
1952 6288 
1953 6288 
1954 6288 
1955 6288 
1956 6288 
1957 6288 
1958 6288 
1959 6288 
1960 6288 
1961 6288 
1962 6288 
1963 6288 
1964 6288 
1965 6288 
1966 6288 
1967 6288 
1968 6288 
1969 6288 
1970 6288 
1971 6288 
1972 6288 
1973 6288 
1974 6288 
1975 6288 
1976 6288 
1977 6288 
1978 6288 
1979 6288 
1980 6288 
1981 6288 
1982 6288 
1983 6288 
1984 6288 
1985 6288 
1986 6288 
1987 6288 
1988 6288 
1989 6288 
1990 6288 
1991 6288 
1992 6288 
1993 6288 
1994 6288 
1995 6288 
1996 6288 
1997 6288 
1998 6288 
1999 6288 
2000 6288 
2001 6288 
2002 6288 
2003 6288 
2004 6288 
2005 6288 
2006 6288 
2007 6288 
2008 6288 
2009 6288 
2010 6288 
2011 6288 
2012 6288 
2013 6288 
2014 6288 
2015 6288 
2016 6288 
2017 6288 
2018 6288 
2019 6288 
2020 6288 
2021 6288 
2022 6288 
2023 6288 
2024 6288 
2025 6288 
2026 6288 
2027 6288 
2028 6288 
2029 6288 
2030 6288 
2031 6288 
2032 6288 
2033 6288 
2034 6288 
2035 6288 
2036 6288 
2037 6288 
2038 6288 
2039 6288 
2040 6288 
2041 6288 
2042 6288 
2043 6288 
2044 6288 
2045 6288 
2046 6288 
2047 6288 
2048 6288 
2049 6288 
2050 6288 
2051 6288 
2052 6288 
2053 6288 
2054 6288 
2055 6288 
2056 6288 
2057 6288 
2058 6288 
2059 6288 
2060 6288 
2061 6288 
2062 6288 
2063 6288 
2064 6288 
2065 6288 
2066 6288 
2067 6288 
2068 6288 
2069 6288 
2070 6288 
2071 6288 
2072 6288 
2073 6288 
2074 6288 
2075 6288 
2076 6288 
2077 6288 
2078 6288 
2079 6288 
2080 6288 
2081 6288 
2082 6288 
2083 6288 
2084 6288 
2085 6288 
2086 6288 
2087 6288 
2088 6288 
2089 6288 
2090 6288 
2091 6288 
2092 6288 
2093 6288 
2094 6288 
2095 6288 
2096 6288 
2097 6288 
2098 6288 
2099 6288 
2100 6288 
2101 6288 
2102 6288 
2103 6288 
2104 6288 
2105 6288 
2106 6288 
2107 6288 
2108 6288 
2109 6288 
2110 6288 
2111 6288 
2112 6288 
2113 6288 
2114 6288 
2115 6288 
2116 6288 
2117 6288 
2118 6288 
2119 6288 
2120 6288 
2121 6288 
2122 6288 
2123 6288 
2124 6288 
2125 6288 
2126 6288 
2127 6288 
2128 6288 
2129 6288 
2130 6288 
2131 6288 
2132 6288 
2133 6288 
2134 6288 
2135 6288 
2136 6288 
2137 6288 
2138 6288 
2139 6288 
2140 6288 
2141 6288 
2142 6288 
2143 6288 
2144 6288 
2145 6288 
2146 6288 
2147 6288 
2148 6288 
2149 6288 
2150 6288 
2151 6288 
2152 6288 
2153 6288 
2154 6288 
2155 6288 
2156 6288 
2157 6288 
2158 6288 
2159 6288 
2160 6288 
2161 6288 
2162 6288 
2163 6288 
2164 6288 
2165 6288 
2166 6288 
2167 6288 
2168 6288 
2169 6288 
2170 6288 
2171 6288 
2172 6288 
2173 6288 
2174 6288 
2175 6288 
2176 6288 
2177 6288 
2178 6288 
2179 6288 
2180 6288 
2181 6288 
2182 6288 
2183 6288 
2184 6288 
2185 6288 
2186 6288 
2187 6288 
2188 6288 
2189 6288 
2190 6288 
2191 6288 
2192 6288 
2193 6288 
2194 6288 
2195 6288 
2196 6288 
2197 6288 
2198 6288 
2199 6288 
2200 6288 
2201 6288 
2202 6288 
2203 6288 
2204 6288 
2205 6288 
2206 6288 
2207 6288 
2208 6288 
2209 6288 
2210 6288 
2211 6288 
2212 6288 
2213 6288 
2214 6288 
2215 6288 
2216 6288 
2217 6288 
2218 6288 
2219 6288 
2220 6288 
2221 6288 
2222 6288 
2223 6288 
2224 6288 
2225 6288 
2226 6288 
2227 6288 
2228 6288 
2229 6288 
2230 6288 
2231 6288 
2232 6288 
2233 6288 
2234 6288 
2235 6288 
2236 6288 
2237 6288 
2238 6288 
2239 6288 
2240 6288 
2241 6288 
2242 6288 
2243 6288 
2244 6288 
2245 6288 
2246 6288 
2247 6288 
2248 6288 
2249 6288 
2250 6288 
2251 6288 
2252 6288 
2253 6288 
2254 6288 
2255 6288 
2256 6288 
2257 6288 
2258 6288 
2259 6288 
2260 6288 
2261 6288 
2262 6288 
2263 6288 
2264 6288 
2265 6288 
2266 6288 
2267 6288 
2268 6288 
2269 6288 
2270 6288 
2271 6288 
2272 6288 
2273 6288 
2274 6288 
2275 6288 
2276 6288 
2277 6288 
2278 6288 
2279 6288 
2280 6288 
2281 6288 
2282 6288 
2283 6288 
2284 6288 
2285 6288 
2286 6288 
2287 6288 
2288 6288 
2289 6288 
2290 6288 
2291 6288 
2292 6288 
2293 6288 
2294 6288 
2295 6288 
2296 6288 
2297 6288 
2298 6288 
2299 6288 
2300 6288 
2301 6288 
2302 6288 
2303 6288 
2304 6288 
2305 6288 
2306 6288 
2307 6288 
2308 6288 
2309 6288 
2310 6288 
2311 6288 
2312 6288 
2313 6288 
2314 6288 
2315 6288 
2316 6288 
2317 6288 
2318 6288 
2319 6288 
2320 6288 
2321 6288 
2322 6288 
2323 6288 
2324 6288 
2325 6288 
2326 6288 
2327 6288 
2328 6288 
2329 6288 
2330 6288 
2331 6288 
2332 6288 
2333 6288 
2334 6288 
2335 6288 
2336 6288 
2337 6288 
2338 6288 
2339 6288 
2340 6288 
2341 6288 
2342 6288 
2343 6288 
2344 6288 
2345 6288 
2346 6288 
2347 6288 
2348 6288 
2349 6288 
2350 6288 
2351 6288 
2352 6288 
2353 6288 
2354 6288 
2355 6288 
2356 6288 
2357 6288 
2358 6288 
2359 6288 
2360 6288 
2361 6288 
2362 6288 
2363 6288 
2364 6288 
2365 6288 
2366 6288 
2367 6288 
2368 6288 
2369 6288 
2370 6288 
2371 6288 
2372 6288 
2373 6288 
2374 6288 
2375 6288 
2376 6288 
2377 6288 
2378 6288 
2379 6288 
2380 6288 
2381 6288 
2382 6288 
2383 6288 
2384 6288 
2385 6288 
2386 6288 
2387 6288 
2388 6288 
2389 6288 
2390 6288 
2391 6288 
2392 6288 
2393 6288 
2394 6288 
2395 6288 
2396 6288 
2397 6288 
2398 6288 
2399 6288 
2400 6288 
2401 6288 
2402 6288 
2403 6288 
2404 6288 
2405 6288 
2406 6288 
2407 6288 
2408 6288 
2409 6288 
2410 6288 
2411 6288 
2412 6288 
2413 6288 
2414 6288 
2415 6288 
2416 6288 
2417 6288 
2418 6288 
2419 6288 
2420 6288 
2421 6288 
2422 6288 
2423 6288 
2424 6288 
2425 6288 
2426 6288 
2427 6288 
2428 6288 
2429 6288 
2430 6288 
2431 6288 
2432 6288 
2433 6288 
2434 6288 
2435 6288 
2436 6288 
2437 6288 
2438 6288 
2439 6288 
2440 6288 
2441 6288 
2442 6288 
2443 6288 
2444 6288 
2445 6288 
2446 6288 
2447 6288 
2448 6288 
2449 6288 
2450 6288 
2451 6288 
2452 6288 
2453 6288 
2454 6288 
2455 6288 
2456 6288 
2457 6288 
2458 6288 
2459 6288 
2460 6288 
2461 6288 
2462 6288 
2463 6288 
2464 6288 
2465 6288 
2466 6288 
2467 6288 
2468 6288 
2469 6288 
2470 6288 
2471 6288 
2472 6288 
2473 6288 
2474 6288 
2475 6288 
2476 6288 
2477 6288 
2478 6288 
2479 6288 
2480 6288 
2481 6288 
2482 6288 
2483 6288 
2484 6288 
2485 6288 
2486 6288 
2487 6288 
2488 6288 
2489 6288 
2490 6288 
2491 6288 
2492 6288 
2493 6288 
2494 6288 
2495 6288 
2496 6288 
2497 6288 
2498 6288 
2499 6288 
2500 6288 
2501 6288 
2502 6288 
2503 6288 
2504 6288 
2505 6288 
2506 6288 
2507 6288 
2508 6288 
2509 6288 
2510 6288 
2511 6288 
2512 6288 
2513 6288 
2514 6288 
2515 6288 
2516 6288 
2517 6288 
2518 6288 
2519 6288 
2520 6288 
2521 6288 
2522 6288 
2523 6288 
2524 6288 
2525 6288 
2526 6288 
2527 6288 
2528 6288 
2529 6288 
2530 6288 
2531 6288 
2532 6288 
2533 6288 
2534 6288 
2535 6288 
2536 6288 
2537 6288 
2538 6288 
2539 6288 
2540 6288 
2541 6288 
2542 6288 
2543 6288 
2544 6288 
2545 6288 
2546 6288 
2547 6288 
2548 6288 
2549 6288 
2550 6288 
2551 6288 
2552 6288 
2553 6288 
2554 6288 
2555 6288 
2556 6288 
2557 6288 
2558 6288 
2559 6288 
2560 6288 
2561 6288 
2562 6288 
2563 6288 
2564 6288 
2565 6288 
2566 6288 
2567 6288 
2568 6288 
2569 6288 
2570 6288 
2571 6288 
2572 6288 
2573 6288 
2574 6288 
2575 6288 
2576 6288 
2577 6288 
2578 6288 
2579 6288 
2580 6288 
2581 6288 
2582 6288 
2583 6288 
2584 6288 
2585 6288 
2586 6288 
2587 6288 
2588 6288 
2589 6288 
2590 6288 
2591 6288 
2592 6288 
2593 6288 
2594 6288 
2595 6288 
2596 6288 
2597 6288 
2598 6288 
2599 6288 
2600 6288 
2601 6288 
2602 6288 
2603 6288 
2604 6288 
2605 6288 
2606 6288 
2607 6288 
2608 6288 
2609 6288 
2610 6288 
2611 6288 
2612 6288 
2613 6288 
2614 6288 
2615 6288 
2616 6288 
2617 6288 
2618 6288 
2619 6288 
2620 6288 
2621 6288 
2622 6288 
2623 6288 
2624 6288 
2625 6288 
2626 6288 
2627 6288 
2628 6288 
2629 6288 
2630 6288 
2631 6288 
2632 6288 
2633 6288 
2634 6288 
2635 6288 
2636 6288 
2637 6288 
2638 6288 
2639 6288 
2640 6288 
2641 6288 
2642 6288 
2643 6288 
2644 6288 
2645 6288 
2646 6288 
2647 6288 
2648 6288 
2649 6288 
2650 6288 
2651 6288 
2652 6288 
2653 6288 
2654 6288 
2655 6288 
2656 6288 
2657 6288 
2658 6288 
2659 6288 
2660 6288 
2661 6288 
2662 6288 
2663 6288 
2664 6288 
2665 6288 
2666 6288 
2667 6288 
2668 6288 
2669 6288 
2670 6288 
2671 6288 
2672 6288 
2673 6288 
2674 6288 
2675 6288 
2676 6288 
2677 6288 
2678 6288 
2679 6288 
2680 6288 
2681 6288 
2682 6288 
2683 6288 
2684 6288 
2685 6288 
2686 6288 
2687 6288 
2688 6288 
2689 6288 
2690 6288 
2691 6288 
2692 6288 
2693 6288 
2694 6288 
2695 6288 
2696 6288 
2697 6288 
2698 6288 
2699 6288 
2700 6288 
2701 6288 
2702 6288 
2703 6288 
2704 6288 
2705 6288 
2706 6288 
2707 6288 
2708 6288 
2709 6288 
2710 6288 
2711 6288 
2712 6288 
2713 6288 
2714 6288 
2715 6288 
2716 6288 
2717 6288 
2718 6288 
2719 6288 
2720 6288 
2721 6288 
2722 6288 
2723 6288 
2724 6288 
2725 6288 
2726 6288 
2727 6288 
2728 6288 
2729 6288 
2730 6288 
2731 6288 
2732 6288 
2733 6288 
2734 6288 
2735 6288 
2736 6288 
2737 6288 
2738 6288 
2739 6288 
2740 6288 
2741 6288 
2742 6288 
2743 6288 
2744 6288 
2745 6288 
2746 6288 
2747 6288 
2748 6288 
2749 6288 
2750 6288 
2751 6288 
2752 6288 
2753 6288 
2754 6288 
2755 6288 
2756 6288 
2757 6288 
2758 6288 
2759 6288 
2760 6288 
2761 6288 
2762 6288 
2763 6288 
2764 6288 
2765 6288 
2766 6288 
2767 6288 
2768 6288 
2769 6288 
2770 6288 
2771 6288 
2772 6288 
2773 6288 
2774 6288 
2775 6288 
2776 6288 
2777 6288 
2778 6288 
2779 6288 
2780 6288 
2781 6288 
2782 6288 
2783 6288 
2784 6288 
2785 6288 
2786 6288 
2787 6288 
2788 6288 
2789 6288 
2790 6288 
2791 6288 
2792 6288 
2793 6288 
2794 6288 
2795 6288 
2796 6288 
2797 6288 
2798 6288 
2799 6288 
2800 6288 
2801 6288 
2802 6288 
2803 6288 
2804 6288 
2805 6288 
2806 6288 
2807 6288 
2808 6288 
2809 6288 
2810 6288 
2811 6288 
2812 6288 
2813 6288 
2814 6288 
2815 6288 
2816 6288 
2817 6288 
2818 6288 
2819 6288 
2820 6288 
2821 6288 
2822 6288 
2823 6288 
2824 6288 
2825 6288 
2826 6288 
2827 6288 
2828 6288 
2829 6288 
2830 6288 
2831 6288 
2832 6288 
2833 6288 
2834 6288 
2835 6288 
2836 6288 
2837 6288 
2838 6288 
2839 6288 
2840 6288 
2841 6288 
2842 6288 
2843 6288 
2844 6288 
2845 6288 
2846 6288 
2847 6288 
2848 6288 
2849 6288 
2850 6288 
2851 6288 
2852 6288 
2853 6288 
2854 6288 
2855 6288 
2856 6288 
2857 6288 
2858 6288 
2859 6288 
2860 6288 
2861 6288 
2862 6288 
2863 6288 
2864 6288 
2865 6288 
2866 6288 
2867 6288 
2868 6288 
2869 6288 
2870 6288 
2871 6288 
2872 6288 
2873 6288 
2874 6288 
2875 6288 
2876 6288 
2877 6288 
2878 6288 
2879 6288 
2880 6288 
2881 6288 
2882 6288 
2883 6288 
2884 6288 
2885 6288 
2886 6288 
2887 6288 
2888 6288 
2889 6288 
2890 6288 
2891 6288 
2892 6288 
2893 6288 
2894 6288 
2895 6288 
2896 6288 
2897 6288 
2898 6288 
2899 6288 
2900 6288 
2901 6288 
2902 6288 
2903 6288 
2904 6288 
2905 6288 
2906 6288 
2907 6288 
2908 6288 
2909 6288 
2910 6288 
2911 6288 
2912 6288 
2913 6288 
2914 6288 
2915 6288 
2916 6288 
2917 6288 
2918 6288 
2919 6288 
2920 6288 
2921 6288 
2922 6288 
2923 6288 
2924 6288 
2925 6288 
2926 6288 
2927 6288 
2928 6288 
2929 6288 
2930 6288 
2931 6288 
2932 6288 
2933 6288 
2934 6288 
2935 6288 
2936 6288 
2937 6288 
2938 6288 
2939 6288 
2940 6288 
2941 6288 
2942 6288 
2943 6288 
2944 6288 
2945 6288 
2946 6288 
2947 6288 
2948 6288 
2949 6288 
2950 6288 
2951 6288 
2952 6288 
2953 6288 
2954 6288 
2955 6288 
2956 6288 
2957 6288 
2958 6288 
2959 6288 
2960 6288 
2961 6288 
2962 6288 
2963 6288 
2964 6288 
2965 6288 
2966 6288 
2967 6288 
2968 6288 
2969 6288 
2970 6288 
2971 6288 
2972 6288 
2973 6288 
2974 6288 
2975 6288 
2976 6288 
2977 6288 
2978 6288 
2979 6288 
2980 6288 
2981 6288 
2982 6288 
2983 6288 
2984 6288 
2985 6288 
2986 6288 
2987 6288 
2988 6288 
2989 6288 
2990 6288 
2991 6288 
2992 6288 
2993 6288 
2994 6288 
2995 6288 
2996 6288 
2997 6288 
2998 6288 
2999 6288 
3000 6288 
3001 6288 
3002 6288 
3003 6288 
3004 6288 
3005 6288 
3006 6288 
3007 6288 
3008 6288 
3009 6288 
3010 6288 
3011 6288 
3012 6288 
3013 6288 
3014 6288 
3015 6288 
3016 6288 
3017 6288 
3018 6288 
3019 6288 
3020 6288 
3021 6288 
3022 6288 
3023 6288 
3024 6288 
3025 6288 
3026 6288 
3027 6288 
3028 6288 
3029 6288 
3030 6288 
3031 6288 
3032 6288 
3033 6288 
3034 6288 
3035 6288 
3036 6288 
3037 6288 
3038 6288 
3039 6288 
3040 6288 
3041 6288 
3042 6288 
3043 6288 
3044 6288 
3045 6288 
3046 6288 
3047 6288 
3048 6288 
3049 6288 
3050 6288 
3051 6288 
3052 6288 
3053 6288 
3054 6288 
3055 6288 
3056 6288 
3057 6288 
3058 6288 
3059 6288 
3060 6288 
3061 6288 
3062 6288 
3063 6288 
3064 6288 
3065 6288 
3066 6288 
3067 6288 
3068 6288 
3069 6288 
3070 6288 
3071 6288 
3072 6288 
3073 6288 
3074 6288 
3075 6288 
3076 6288 
3077 6288 
3078 6288 
3079 6288 
3080 6288 
3081 6288 
3082 6288 
3083 6288 
3084 6288 
3085 6288 
3086 6288 
3087 6288 
3088 6288 
3089 6288 
3090 6288 
3091 6288 
3092 6288 
3093 6288 
3094 6288 
3095 6288 
3096 6288 
3097 6288 
3098 6288 
3099 6288 
3100 6288 
3101 6288 
3102 6288 
3103 6288 
3104 6288 
3105 6288 
3106 6288 
3107 6288 
3108 6288 
3109 6288 
3110 6288 
3111 6288 
3112 6288 
3113 6288 
3114 6288 
3115 6288 
3116 6288 
3117 6288 
3118 6288 
3119 6288 
3120 6288 
3121 6288 
3122 6288 
3123 6288 
3124 6288 
3125 6288 
3126 6288 
3127 6288 
3128 6288 
3129 6288 
3130 6288 
3131 6288 
3132 6288 
3133 6288 
3134 6288 
3135 6288 
3136 6288 
3137 6288 
3138 6288 
3139 6288 
3140 6288 
3141 6288 
3142 6288 
3143 6288 
3144 6288 
3145 6288 
3146 6288 
3147 6288 
3148 6288 
3149 6288 
3150 6288 
3151 6288 
3152 6288 
3153 6288 
3154 6288 
3155 6288 
3156 6288 
3157 6288 
3158 6288 
3159 6288 
3160 6288 
3161 6288 
3162 6288 
3163 6288 
3164 6288 
3165 6288 
3166 6288 
3167 6288 
3168 6288 
3169 6288 
3170 6288 
3171 6288 
3172 6288 
3173 6288 
3174 6288 
3175 6288 
3176 6288 
3177 6288 
3178 6288 
3179 6288 
3180 6288 
3181 6288 
3182 6288 
3183 6288 
3184 6288 
3185 6288 
3186 6288 
3187 6288 
3188 6288 
3189 6288 
3190 6288 
3191 6288 
3192 6288 
3193 6288 
3194 6288 
3195 6288 
3196 6288 
3197 6288 
3198 6288 
3199 6288 
3200 6288 
3201 6288 
3202 6288 
3203 6288 
3204 6288 
3205 6288 
3206 6288 
3207 6288 
3208 6288 
3209 6288 
3210 6288 
3211 6288 
3212 6288 
3213 6288 
3214 6288 
3215 6288 
3216 6288 
3217 6288 
3218 6288 
3219 6288 

